
DEPOT = { 1 };
A = { 232, 208, 209, 201, 212, 218, 219, 213 };
D = { 232, 208, 209, 201, 212, 218, 219, 213 };

nbr_camion = 4;
qte_neige = 15;
pourcent = 100;
division = 2000;

long = 8;
cout = 15;
nb_neige_cm = 15;

distance_depot_km = [|2.1,
                     |1.75,
                     |1.45,
                     |1.1,
                     |0.7,
                     |1,
                     |0.125,
                     |2.25|];
          
surface_parking = [3000, 2000, 20000, 800, 4000, 3600, 25550, 875];
                 
                   
                   
distance_parking = [|0.00, 1.50, 1.00, 2.45, 2.30, 1.90, 2.70, 0.40,
	          |1.50, 0.00, 0.70, 1.75, 1.90, 1.50, 2.10, 1.60,
	          |1.00, 0.70, 0.00, 1.60, 1.40, 1.00, 1.70, 1.20,               
	          |2.45, 1.75, 1.60, 0.00, 1.75, 1.30, 2.00, 2.40,
	          |2.30, 1.90, 1.40, 1.75, 0.00, 0.55, 1.30, 2.40,
	          |1.90, 1.50, 1.00, 10.3, 0.55, 0.00, 0.90, 2.10,
	          |2.70, 2.10, 1.70, 2.00, 1.30, 0.90, 0.00, 2.40,
	          |0.40, 1.60, 1.20, 2.40, 2.40, 2.10, 2.40, 0.00|];                   
	          
	          